File: D:\ML4VRP2024\Instances\CVRP\json\X-n120-k6.json exists.
Route #1: 20 107 96 71 54 87 72 62 40 111 102 34 27 11 56 1 24 35 92 6 36 
Route #2: 80 16 49 2 43 76 113 98 13 99 17 103 18 75 46 66 108 117 26 5 41 
Route #3: 116 112 45 3 78 8 114 90 53 81 69 68 60 95 4 22 59 100 77 57 37 
Route #4: 52 31 73 25 67 30 118 79 33 23 14 58 83 106 7 110 74 65 86 48 115 
Route #5: 50 88 38 29 32 91 21 12 9 15 44 28 19 97 
Route #6: 10 94 119 61 84 93 55 70 39 42 109 82 64 85 89 51 63 104 105 101 47 
